Version identifier: 20.1.0.0 | 2020-11-10 | 9bedb6d68
Tried aggregator 2 times.
MIP Presolve eliminated 1290 rows and 650 columns.
MIP Presolve modified 3186 coefficients.
Aggregator did 140 substitutions.
Reduced MIP has 1779 rows, 1425 columns, and 5835 nonzeros.
Reduced MIP has 265 binaries, 1160 generals, 0 SOSs, and 0 indicators.
Presolve time = 0.02 sec. (7.26 ticks)
Probing fixed 36 vars, tightened 427 bounds.
Probing time = 0.00 sec. (1.35 ticks)
Tried aggregator 2 times.
Detecting symmetries...
MIP Presolve eliminated 694 rows and 52 columns.
MIP Presolve modified 147 coefficients.
Aggregator did 22 substitutions.
Reduced MIP has 1063 rows, 1351 columns, and 3471 nonzeros.
Reduced MIP has 353 binaries, 998 generals, 0 SOSs, and 0 indicators.
Presolve time = 0.01 sec. (4.87 ticks)
Probing time = 0.00 sec. (0.35 ticks)
Clique table members: 21.
MIP emphasis: balance optimality and feasibility.
MIP search method: dynamic search.
Parallel mode: deterministic, using up to 24 threads.
Root relaxation solution time = 0.02 sec. (3.64 ticks)

        Nodes                                         Cuts/
   Node  Left     Objective  IInf  Best Integer    Best Bound    ItCnt     Gap

*     0+    0                           97.0000        0.0000           100.00%
      0     0        0.0000    47       97.0000        0.0000      363  100.00%
      0     0        0.1882   143       97.0000     Cuts: 192      625   99.81%
      0     0        0.6061   193       97.0000     Cuts: 220      821   99.38%
      0     0        1.0000   170       97.0000      Cuts: 81     1039   98.97%
*     0+    0                           20.0000        1.0000            95.00%
      0     0        1.0000   136       20.0000      Cuts: 46     1190   15.00%
      0     0        1.0000    76       20.0000      Cuts: 34     1209   15.00%
      0     0        1.0000    63       20.0000   ZeroHalf: 5     1219   15.00%
      0     0        1.0000    68       20.0000   ZeroHalf: 6     1222   15.00%
      0     0        1.0000    57       20.0000       Cuts: 2     1235   15.00%
      0     0        1.0000    60       20.0000   ZeroHalf: 2     1236   15.00%
*     0+    0                           18.0000       17.0000             5.56%
      0     0        cutoff             18.0000       18.0000     1236    0.00%
Elapsed time = 1.33 sec. (163.50 ticks, tree = 0.01 MB, solutions = 3)

Cover cuts applied:  1
Implied bound cuts applied:  82
Flow cuts applied:  10
Mixed integer rounding cuts applied:  31
Zero-half cuts applied:  113
Lift and project cuts applied:  6
Gomory fractional cuts applied:  26

Root node processing (before b&c):
  Real time             =    1.33 sec. (163.62 ticks)
Parallel b&c, 24 threads:
  Real time             =    0.00 sec. (0.00 ticks)
  Sync time (average)   =    0.00 sec.
  Wait time (average)   =    0.00 sec.
                          ------------
Total (root+branch&cut) =    1.33 sec. (163.62 ticks)

Solution status = Optimal
Solution LB = 18
Solution UB = 18
Runtime = 1.3384 seconds
	Command being timed: "/home/min/git_repos/CS598MEBProject/CNT-ILP/build/cnt -s 2 ./output/k8_n20/simC_c1_k8_n20_u2_s2_del02.input-right.cnp"
	User time (seconds): 20.15
	System time (seconds): 0.15
	Percent of CPU this job got: 1488%
	Elapsed (wall clock) time (h:mm:ss or m:ss): 0:01.36
	Average shared text size (kbytes): 0
	Average unshared data size (kbytes): 0
	Average stack size (kbytes): 0
	Average total size (kbytes): 0
	Maximum resident set size (kbytes): 117516
	Average resident set size (kbytes): 0
	Major (requiring I/O) page faults: 8
	Minor (reclaiming a frame) page faults: 36962
	Voluntary context switches: 6639
	Involuntary context switches: 2584
	Swaps: 0
	File system inputs: 512
	File system outputs: 16
	Socket messages sent: 0
	Socket messages received: 0
	Signals delivered: 0
	Page size (bytes): 4096
	Exit status: 0
